data/lp_files/q3/38_6.lp
\ Model foo
\ LP format - for model browsing. Use MPS format to capture full model detail.
Minimize
  z
Subject To
 allocateEach[1]: x[1,1] + x[2,1] = 1
 allocateEach[2]: x[1,2] + x[2,2] = 1
 allocateEach[3]: x[1,3] + x[2,3] = 1
 allocateEach[4]: x[1,4] + x[2,4] = 1
 allocateEach[5]: x[1,5] + x[2,5] = 1
 allocateEach[6]: x[1,6] + x[2,6] = 1
 allocateEach[7]: x[1,7] + x[2,7] = 1
 allocateEach[8]: x[1,8] + x[2,8] = 1
 allocateEach[9]: x[1,9] + x[2,9] = 1
 allocateEach[10]: x[1,10] + x[2,10] = 1
 allocateEach[11]: x[1,11] + x[2,11] = 1
 allocateEach[12]: x[1,12] + x[2,12] = 1
 allocateEach[13]: x[1,13] + x[2,13] = 1
 allocateEach[14]: x[1,14] + x[2,14] = 1
 allocateEach[15]: x[1,15] + x[2,15] = 1
 allocateEach[16]: x[1,16] + x[2,16] = 1
 allocateEach[17]: x[1,17] + x[2,17] = 1
 allocateEach[18]: x[1,18] + x[2,18] = 1
 allocateAllCash: cashProportion[1] + cashProportion[2] = 1
 findWorstP[1,2]: z + 0.0409345354441909 cashProportion[1]
   - 0.0409345354441909 cashProportion[2] + 0.0635918008125505 x[1,1]
   + 0.0405456573574711 x[1,2] + 0.0947020477501356 x[1,3]
   + 0.0520277945495666 x[1,4] + 0.00989592394363314 x[1,5]
   + 0.0564998925468445 x[1,6] + 0.0173050748590317 x[1,7]
   + 0.0769466930012178 x[1,8] + 0.0484971908675051 x[1,9]
   + 0.0182977373435533 x[1,10] + 0.0444037373230861 x[1,11]
   + 0.0688621222509901 x[1,12] + 0.0566943315902044 x[1,13]
   + 0.1014562460984271 x[1,14] + 0.0295138 x[1,15]
   + 0.0583624139095552 x[1,16] + 0.0249700666209564 x[1,17]
   + 0.096492933675819 x[1,18] - 0.0635918008125505 x[2,1]
   - 0.0405456573574711 x[2,2] - 0.0947020477501356 x[2,3]
   - 0.0520277945495666 x[2,4] - 0.00989592394363314 x[2,5]
   - 0.0564998925468445 x[2,6] - 0.0173050748590317 x[2,7]
   - 0.0769466930012178 x[2,8] - 0.0484971908675051 x[2,9]
   - 0.0182977373435533 x[2,10] - 0.0444037373230861 x[2,11]
   - 0.0688621222509901 x[2,12] - 0.0566943315902044 x[2,13]
   - 0.1014562460984271 x[2,14] - 0.0295138 x[2,15]
   - 0.0583624139095552 x[2,16] - 0.0249700666209564 x[2,17]
   - 0.096492933675819 x[2,18] >= 0
 findWorstP[2,1]: z - 0.037362924769751 cashProportion[1]
   + 0.037362924769751 cashProportion[2] - 0.0533916194959741 x[1,1]
   - 0.0892413458125502 x[1,2] - 0.0177006856096695 x[1,3]
   - 0.0469838778979619 x[1,4] - 0.0241084272076818 x[1,5]
   - 0.0874292439612173 x[1,6] - 0.0746231014963851 x[1,7]
   - 0.0310112275588933 x[1,8] - 0.0434250593136431 x[1,9]
   - 0.0700274617497058 x[1,10] - 0.0665900726708887 x[1,11]
   - 0.00313848568065908 x[1,12] - 0.0587905621252032 x[1,13]
   - 0.0813484279549403 x[1,14] - 0.0657680883259542 x[1,15]
   - 0.0568290085747912 x[1,16] - 0.0878122139401072 x[1,17]
   - 0.00441816585402305 x[1,18] + 0.0533916194959741 x[2,1]
   + 0.0892413458125502 x[2,2] + 0.0177006856096695 x[2,3]
   + 0.0469838778979619 x[2,4] + 0.0241084272076818 x[2,5]
   + 0.0874292439612173 x[2,6] + 0.0746231014963851 x[2,7]
   + 0.0310112275588933 x[2,8] + 0.0434250593136431 x[2,9]
   + 0.0700274617497058 x[2,10] + 0.0665900726708887 x[2,11]
   + 0.00313848568065908 x[2,12] + 0.0587905621252032 x[2,13]
   + 0.0813484279549403 x[2,14] + 0.0657680883259542 x[2,15]
   + 0.0568290085747912 x[2,16] + 0.0878122139401072 x[2,17]
   + 0.00441816585402305 x[2,18] >= 0
Bounds
 z <= 1
 -infinity <= cashProportion[1] <= 1
 -infinity <= cashProportion[2] <= 1
Binaries
 x[1,1] x[1,2] x[1,3] x[1,4] x[1,5] x[1,6] x[1,7] x[1,8] x[1,9] x[1,10]
 x[1,11] x[1,12] x[1,13] x[1,14] x[1,15] x[1,16] x[1,17] x[1,18] x[2,1]
 x[2,2] x[2,3] x[2,4] x[2,5] x[2,6] x[2,7] x[2,8] x[2,9] x[2,10] x[2,11]
 x[2,12] x[2,13] x[2,14] x[2,15] x[2,16] x[2,17] x[2,18]
End
