data/mps_files/q3/38_6.mps
NAME foo
ROWS
 N  OBJ
 E  allocateEach[1]
 E  allocateEach[2]
 E  allocateEach[3]
 E  allocateEach[4]
 E  allocateEach[5]
 E  allocateEach[6]
 E  allocateEach[7]
 E  allocateEach[8]
 E  allocateEach[9]
 E  allocateEach[10]
 E  allocateEach[11]
 E  allocateEach[12]
 E  allocateEach[13]
 E  allocateEach[14]
 E  allocateEach[15]
 E  allocateEach[16]
 E  allocateEach[17]
 E  allocateEach[18]
 E  allocateAllCash
 G  findWorstP[1,2]
 G  findWorstP[2,1]
COLUMNS
    z         OBJ       1
    z         findWorstP[1,2]  1
    z         findWorstP[2,1]  1
    cashProportion[1]  allocateAllCash  1
    cashProportion[1]  findWorstP[1,2]  4.0934535444190887e-02
    cashProportion[1]  findWorstP[2,1]  -3.7362924769750977e-02
    cashProportion[2]  allocateAllCash  1
    cashProportion[2]  findWorstP[1,2]  -4.0934535444190887e-02
    cashProportion[2]  findWorstP[2,1]  3.7362924769750977e-02
    MARKER    'MARKER'                 'INTORG'
    x[1,1]    allocateEach[1]  1
    x[1,1]    findWorstP[1,2]  6.3591800812550531e-02
    x[1,1]    findWorstP[2,1]  -5.3391619495974145e-02
    x[1,2]    allocateEach[2]  1
    x[1,2]    findWorstP[1,2]  4.0545657357471072e-02
    x[1,2]    findWorstP[2,1]  -8.9241345812550207e-02
    x[1,3]    allocateEach[3]  1
    x[1,3]    findWorstP[1,2]  0.0947020477501356
    x[1,3]    findWorstP[2,1]  -1.7700685609669524e-02
    x[1,4]    allocateEach[4]  1
    x[1,4]    findWorstP[1,2]  5.2027794549566610e-02
    x[1,4]    findWorstP[2,1]  -4.6983877897961851e-02
    x[1,5]    allocateEach[5]  1
    x[1,5]    findWorstP[1,2]  9.8959239436331448e-03
    x[1,5]    findWorstP[2,1]  -2.4108427207681818e-02
    x[1,6]    allocateEach[6]  1
    x[1,6]    findWorstP[1,2]  5.6499892546844468e-02
    x[1,6]    findWorstP[2,1]  -8.7429243961217290e-02
    x[1,7]    allocateEach[7]  1
    x[1,7]    findWorstP[1,2]  1.7305074859031697e-02
    x[1,7]    findWorstP[2,1]  -7.4623101496385139e-02
    x[1,8]    allocateEach[8]  1
    x[1,8]    findWorstP[1,2]  7.6946693001217814e-02
    x[1,8]    findWorstP[2,1]  -3.1011227558893312e-02
    x[1,9]    allocateEach[9]  1
    x[1,9]    findWorstP[1,2]  4.8497190867505147e-02
    x[1,9]    findWorstP[2,1]  -4.3425059313643072e-02
    x[1,10]   allocateEach[10]  1
    x[1,10]   findWorstP[1,2]  1.8297737343553323e-02
    x[1,10]   findWorstP[2,1]  -7.0027461749705769e-02
    x[1,11]   allocateEach[11]  1
    x[1,11]   findWorstP[1,2]  4.4403737323086064e-02
    x[1,11]   findWorstP[2,1]  -6.6590072670888678e-02
    x[1,12]   allocateEach[12]  1
    x[1,12]   findWorstP[1,2]  6.8862122250990115e-02
    x[1,12]   findWorstP[2,1]  -3.1384856806590819e-03
    x[1,13]   allocateEach[13]  1
    x[1,13]   findWorstP[1,2]  5.6694331590204379e-02
    x[1,13]   findWorstP[2,1]  -5.8790562125203158e-02
    x[1,14]   allocateEach[14]  1
    x[1,14]   findWorstP[1,2]  1.0145624609842710e-01
    x[1,14]   findWorstP[2,1]  -8.1348427954940322e-02
    x[1,15]   allocateEach[15]  1
    x[1,15]   findWorstP[1,2]  2.9513800055261625e-02
    x[1,15]   findWorstP[2,1]  -6.5768088325954155e-02
    x[1,16]   allocateEach[16]  1
    x[1,16]   findWorstP[1,2]  5.8362413909555155e-02
    x[1,16]   findWorstP[2,1]  -5.6829008574791243e-02
    x[1,17]   allocateEach[17]  1
    x[1,17]   findWorstP[1,2]  2.4970066620956438e-02
    x[1,17]   findWorstP[2,1]  -8.7812213940107242e-02
    x[1,18]   allocateEach[18]  1
    x[1,18]   findWorstP[1,2]  9.6492933675818959e-02
    x[1,18]   findWorstP[2,1]  -4.4181658540230536e-03
    x[2,1]    allocateEach[1]  1
    x[2,1]    findWorstP[1,2]  -6.3591800812550531e-02
    x[2,1]    findWorstP[2,1]  5.3391619495974145e-02
    x[2,2]    allocateEach[2]  1
    x[2,2]    findWorstP[1,2]  -4.0545657357471072e-02
    x[2,2]    findWorstP[2,1]  8.9241345812550207e-02
    x[2,3]    allocateEach[3]  1
    x[2,3]    findWorstP[1,2]  -0.0947020477501356
    x[2,3]    findWorstP[2,1]  1.7700685609669524e-02
    x[2,4]    allocateEach[4]  1
    x[2,4]    findWorstP[1,2]  -5.2027794549566610e-02
    x[2,4]    findWorstP[2,1]  4.6983877897961851e-02
    x[2,5]    allocateEach[5]  1
    x[2,5]    findWorstP[1,2]  -9.8959239436331448e-03
    x[2,5]    findWorstP[2,1]  2.4108427207681818e-02
    x[2,6]    allocateEach[6]  1
    x[2,6]    findWorstP[1,2]  -5.6499892546844468e-02
    x[2,6]    findWorstP[2,1]  8.7429243961217290e-02
    x[2,7]    allocateEach[7]  1
    x[2,7]    findWorstP[1,2]  -1.7305074859031697e-02
    x[2,7]    findWorstP[2,1]  7.4623101496385139e-02
    x[2,8]    allocateEach[8]  1
    x[2,8]    findWorstP[1,2]  -7.6946693001217814e-02
    x[2,8]    findWorstP[2,1]  3.1011227558893312e-02
    x[2,9]    allocateEach[9]  1
    x[2,9]    findWorstP[1,2]  -4.8497190867505147e-02
    x[2,9]    findWorstP[2,1]  4.3425059313643072e-02
    x[2,10]   allocateEach[10]  1
    x[2,10]   findWorstP[1,2]  -1.8297737343553323e-02
    x[2,10]   findWorstP[2,1]  7.0027461749705769e-02
    x[2,11]   allocateEach[11]  1
    x[2,11]   findWorstP[1,2]  -4.4403737323086064e-02
    x[2,11]   findWorstP[2,1]  6.6590072670888678e-02
    x[2,12]   allocateEach[12]  1
    x[2,12]   findWorstP[1,2]  -6.8862122250990115e-02
    x[2,12]   findWorstP[2,1]  3.1384856806590819e-03
    x[2,13]   allocateEach[13]  1
    x[2,13]   findWorstP[1,2]  -5.6694331590204379e-02
    x[2,13]   findWorstP[2,1]  5.8790562125203158e-02
    x[2,14]   allocateEach[14]  1
    x[2,14]   findWorstP[1,2]  -1.0145624609842710e-01
    x[2,14]   findWorstP[2,1]  8.1348427954940322e-02
    x[2,15]   allocateEach[15]  1
    x[2,15]   findWorstP[1,2]  -2.9513800055261625e-02
    x[2,15]   findWorstP[2,1]  6.5768088325954155e-02
    x[2,16]   allocateEach[16]  1
    x[2,16]   findWorstP[1,2]  -5.8362413909555155e-02
    x[2,16]   findWorstP[2,1]  5.6829008574791243e-02
    x[2,17]   allocateEach[17]  1
    x[2,17]   findWorstP[1,2]  -2.4970066620956438e-02
    x[2,17]   findWorstP[2,1]  8.7812213940107242e-02
    x[2,18]   allocateEach[18]  1
    x[2,18]   findWorstP[1,2]  -9.6492933675818959e-02
    x[2,18]   findWorstP[2,1]  4.4181658540230536e-03
    MARKER    'MARKER'                 'INTEND'
RHS
    RHS1      allocateEach[1]  1
    RHS1      allocateEach[2]  1
    RHS1      allocateEach[3]  1
    RHS1      allocateEach[4]  1
    RHS1      allocateEach[5]  1
    RHS1      allocateEach[6]  1
    RHS1      allocateEach[7]  1
    RHS1      allocateEach[8]  1
    RHS1      allocateEach[9]  1
    RHS1      allocateEach[10]  1
    RHS1      allocateEach[11]  1
    RHS1      allocateEach[12]  1
    RHS1      allocateEach[13]  1
    RHS1      allocateEach[14]  1
    RHS1      allocateEach[15]  1
    RHS1      allocateEach[16]  1
    RHS1      allocateEach[17]  1
    RHS1      allocateEach[18]  1
    RHS1      allocateAllCash  1
BOUNDS
 UP BND1      z         1
 MI BND1      cashProportion[1]
 UP BND1      cashProportion[1]  1
 MI BND1      cashProportion[2]
 UP BND1      cashProportion[2]  1
 BV BND1      x[1,1]  
 BV BND1      x[1,2]  
 BV BND1      x[1,3]  
 BV BND1      x[1,4]  
 BV BND1      x[1,5]  
 BV BND1      x[1,6]  
 BV BND1      x[1,7]  
 BV BND1      x[1,8]  
 BV BND1      x[1,9]  
 BV BND1      x[1,10] 
 BV BND1      x[1,11] 
 BV BND1      x[1,12] 
 BV BND1      x[1,13] 
 BV BND1      x[1,14] 
 BV BND1      x[1,15] 
 BV BND1      x[1,16] 
 BV BND1      x[1,17] 
 BV BND1      x[1,18] 
 BV BND1      x[2,1]  
 BV BND1      x[2,2]  
 BV BND1      x[2,3]  
 BV BND1      x[2,4]  
 BV BND1      x[2,5]  
 BV BND1      x[2,6]  
 BV BND1      x[2,7]  
 BV BND1      x[2,8]  
 BV BND1      x[2,9]  
 BV BND1      x[2,10] 
 BV BND1      x[2,11] 
 BV BND1      x[2,12] 
 BV BND1      x[2,13] 
 BV BND1      x[2,14] 
 BV BND1      x[2,15] 
 BV BND1      x[2,16] 
 BV BND1      x[2,17] 
 BV BND1      x[2,18] 
ENDATA
